(set-logic QF_S)
(declare-fun var0 () String)
(assert (RegexIn var0 (RegexConcat (RegexStar (RegexUnion (Str2Reg "00") (Str2Reg "111"))) (RegexConcat (RegexUnion (RegexPlus (Str2Reg "22")) (RegexPlus (Str2Reg "3"))) (RegexConcat (RegexUnion (RegexUnion (Str2Reg "44") (Str2Reg "55")) (RegexUnion (Str2Reg "6") (Str2Reg "7"))) (RegexConcat (RegexUnion (RegexStar (Str2Reg "8")) (RegexStar (Str2Reg "999"))) (RegexConcat (RegexStar (RegexStar (Str2Reg "a"))) (RegexConcat (RegexPlus (RegexUnion (Str2Reg "b") (Str2Reg "c"))) (RegexConcat (RegexUnion (RegexStar (Str2Reg "dd")) (RegexStar (Str2Reg "e"))) (RegexConcat (RegexUnion (RegexStar (Str2Reg "f")) (RegexStar (Str2Reg "gg"))) (RegexConcat (RegexPlus (RegexPlus (Str2Reg "h"))) (RegexConcat (RegexUnion (RegexStar (Str2Reg "iii")) (RegexStar (Str2Reg "j"))) (RegexUnion (RegexStar (Str2Reg "k")) (RegexStar (Str2Reg "l")))))))))))))))
(assert (not (RegexIn var0 (RegexConcat (RegexPlus (RegexStar (Str2Reg "0"))) (RegexConcat (RegexStar (RegexPlus (Str2Reg "1"))) (RegexConcat (RegexStar (RegexStar (Str2Reg "2"))) (RegexConcat (RegexStar (RegexUnion (Str2Reg "3") (Str2Reg "444"))) (RegexConcat (RegexUnion (RegexUnion (Str2Reg "5") (Str2Reg "66")) (RegexUnion (Str2Reg "77") (Str2Reg "88"))) (RegexConcat (RegexUnion (RegexPlus (Str2Reg "9")) (RegexPlus (Str2Reg "aaa"))) (RegexConcat (RegexUnion (RegexStar (Str2Reg "bb")) (RegexStar (Str2Reg "ccc"))) (RegexConcat (RegexStar (RegexUnion (Str2Reg "ddd") (Str2Reg "e"))) (RegexConcat (RegexPlus (RegexStar (Str2Reg "ff"))) (RegexConcat (RegexUnion (RegexPlus (Str2Reg "gg")) (RegexPlus (Str2Reg "hhh"))) (RegexPlus (RegexStar (Str2Reg "ii"))))))))))))))))
(check-sat)